c --- [ banner ] -------------------------------------------------------------
c 
c CaDiCaL SAT Solver
c Copyright (c) 2016-2023 A. Biere, M. Fleury, N. Froleyks, K. Fazekas, F. Pollitt
c 
c Version 1.7.3 29cd4cb6de6f7400069fe34591e5e7eb319d049f
c g++ (Ubuntu 11.4.0-1ubuntu1~22.04) 11.4.0 -Wall -Wextra -O3 -DNDEBUG
c Wed Oct 4 21:54:22 IST 2023 Linux Kamal 5.15.90.1-microsoft-standard-WSL2 x86_64
c 
c --- [ proof tracing ] ------------------------------------------------------
c 
c opening file to write 'logs/7_2_2_2/instance_7_2_2_2.drat'
c writing binary proof trace to 'logs/7_2_2_2/instance_7_2_2_2.drat'
c 
c --- [ parsing input ] ------------------------------------------------------
c 
c reading DIMACS file from 'logs/7_2_2_2/instance_7_2_2_2.cnf'
c opening file to read 'logs/7_2_2_2/instance_7_2_2_2.cnf'
c found 'p cnf 1028 3281' header
c parsed 3281 clauses in 0.00 seconds process time
c closing file 'logs/7_2_2_2/instance_7_2_2_2.cnf'
c after reading 48236 bytes 0.0 MB
c 
c --- [ options ] ------------------------------------------------------------
c 
c all options are set to their default value
c 
c --- [ solving ] ------------------------------------------------------------
c 
c time measured in process time since initialization
c 
c  seconds  reductions  redundant irredundant
c         MB    restarts       trail    variables
c          level   conflicts       glue     remaining
c 
c *  0.01  4  0 0   0    0    0  0% 0 3216 963 94%
c {  0.01  4  0 0   0    0    0  0% 0 3216 963 94%
c -  0.01  4 101 1  43  300  277 71% 7 3084 963 94%
c -  0.03  5 55 2 137  901  765 62% 8 3084 963 94%
c }  0.03  5 52 2 137 1001  860 60% 8 3084 963 94%
c [  0.03  5  0 2 137 1001  860  0% 0 3084 963 94%
c O  0.03  5 51 2 137 1002  861 85% 4 3084 963 94%
c -  0.05  5 38 3 137 1802 1280 71% 7 3084 963 94%
c ]  0.08  5 33 3 138 3002 2427 66% 9 3084 963 94%
c {  0.08  5 52 3 138 3002 2427 60% 8 3084 963 94%
c -  0.08  5 52 4 138 3002 1890 60% 8 3084 963 94%
c F  0.08  5 52 4 138 3003 1891 60% 8 3084 963 94%
c s  0.09  5 45 4 227 3481 2341 59% 9 3084 963 94%
c w  0.10  5 45 4 227 3481 2339 59% 9 3084 963 94%
c e  0.10  5 45 4 227 3481  475 59% 9 2628 447 43%
c s  0.10  5 45 4 227 3481  475 59% 9 2628 447 43%
c ^  0.10  5 45 4 227 3481  475 59% 9 2628 447 43%
c -  0.12  5 39 5 316 4503 1346 54% 9 2628 447 43%
c #  0.15  5 35 5 466 6005 2793 53% 9 2628 447 43%
c -  0.15  5 35 6 474 6303 2503 52% 9 2628 447 43%
c 
c  seconds  reductions  redundant irredundant
c         MB    restarts       trail    variables
c          level   conflicts       glue     remaining
c 
c }  0.17  5 34 6 562 7004 3170 51% 9 2628 447 43%
c [  0.17  5 33 6 562 7004 3170 151% 9 2628 447 43%
c -  0.20  6 32 7 563 8405 3405 112% 11 2628 447 43%
c I  0.24  6 30 7 564 10006 4923 94% 12 2628 447 43%
c -  0.26  6 31 8 565 10805 4112 89% 13 2628 447 43%
c ]  0.34  6 31 8 566 13023 6161 79% 15 2628 447 43%
c 1  0.34  6 31 8 566 13023 6161 79% 15 2628 447 43%
c 
c --- [ closing proof ] ------------------------------------------------------
c 
c traced 16450 added and 10877 deleted clauses
c closing file 'logs/7_2_2_2/instance_7_2_2_2.drat'
c after writing 1029289 bytes 1.0 MB
c 
c --- [ result ] -------------------------------------------------------------
c 
s SATISFIABLE
v -1 2 -3 -4 -5 6 -7 -8 -9 -10 -11 -12 -13 -14 -15 -16 -17 -18 -19 -20 -21 -22
v -23 -24 -25 -26 -27 -28 -29 -30 -31 -32 -33 -34 -35 -36 -37 -38 -39 -40 -41
v -42 -43 -44 -45 -46 -47 -48 -49 -50 -51 -52 -53 -54 -55 -56 -57 -58 -59 -60
v -61 -62 -63 -64 -65 -66 -67 -68 -69 -70 -71 -72 -73 -74 -75 -76 -77 -78 -79
v -80 -81 -82 -83 -84 -85 -86 -87 -88 89 -90 91 -92 93 -94 95 -96 -97 -98 -99
v -100 -101 -102 -103 -104 -105 -106 -107 -108 -109 -110 -111 -112 -113 -114
v -115 -116 -117 -118 -119 -120 -121 -122 -123 -124 -125 -126 -127 -128 -129
v -130 -131 -132 -133 -134 -135 -136 -137 -138 -139 -140 -141 -142 -143 -144
v -145 -146 147 -148 -149 -150 -151 -152 -153 -154 155 -156 -157 -158 -159
v -160 -161 -162 -163 -164 -165 -166 -167 -168 -169 -170 -171 -172 -173 -174
v -175 -176 -177 -178 179 -180 -181 -182 -183 -184 -185 -186 187 -188 -189
v -190 -191 -192 -193 -194 -195 -196 -197 -198 -199 -200 -201 -202 -203 -204
v -205 -206 -207 -208 -209 -210 -211 -212 -213 -214 -215 -216 -217 -218 -219
v -220 -221 -222 -223 -224 -225 -226 -227 -228 -229 -230 -231 232 -233 -234
v -235 -236 -237 -238 -239 240 -241 -242 -243 -244 -245 -246 -247 -248 -249
v -250 -251 -252 -253 -254 -255 -256 -257 -258 -259 -260 -261 -262 -263 -264
v -265 -266 -267 -268 -269 -270 -271 -272 -273 -274 -275 -276 -277 -278 -279
v -280 -281 -282 -283 -284 -285 -286 -287 -288 -289 -290 -291 -292 -293 -294
v -295 -296 -297 -298 -299 -300 301 302 303 304 -305 -306 -307 -308 -309 -310
v -311 -312 -313 -314 -315 -316 317 318 319 320 321 322 -323 -324 -325 -326
v -327 -328 -329 -330 -331 -332 -333 -334 -335 -336 337 338 -339 -340 -341
v -342 -343 -344 -345 -346 -347 -348 -349 -350 -351 -352 353 354 -355 -356
v -357 -358 -359 -360 -361 -362 -363 -364 -365 -366 -367 -368 369 370 -371
v -372 -373 -374 -375 -376 -377 -378 -379 -380 -381 -382 -383 -384 -385 -386
v -387 -388 -389 -390 -391 -392 -393 -394 -395 -396 -397 -398 -399 -400 401
v 402 403 -404 -405 -406 -407 -408 -409 -410 -411 -412 413 414 415 -416 417
v 418 419 -420 -421 -422 -423 -424 -425 -426 -427 -428 429 430 431 -432 433
v 434 435 -436 -437 -438 -439 -440 -441 -442 -443 -444 445 446 447 -448 449
v 450 -451 -452 -453 -454 -455 -456 -457 -458 -459 -460 -461 -462 -463 -464
v -465 -466 -467 -468 -469 -470 471 472 -473 -474 -475 -476 -477 -478 -479
v -480 -481 -482 -483 -484 485 -486 487 -488 -489 -490 -491 -492 493 -494 495
v -496 -497 -498 -499 -500 -501 -502 -503 -504 -505 506 -507 508 -509 -510
v -511 -512 -513 -514 -515 -516 -517 -518 -519 -520 -521 -522 -523 524 -525
v -526 -527 528 529 -530 -531 -532 533 -534 -535 -536 537 -538 -539 -540 541
v -542 -543 -544 -545 -546 -547 -548 549 -550 -551 552 553 -554 -555 556 557
v -558 -559 560 561 -562 -563 -564 -565 566 -567 -568 -569 570 -571 572 -573
v -574 575 -576 -577 -578 579 580 581 582 583 584 -585 586 587 588 589 590
v -591 -592 -593 -594 595 596 597 -598 599 -600 -601 602 -603 604 -605 -606
v -607 608 609 -610 -611 -612 613 -614 -615 616 -617 618 -619 -620 621 -622
v 623 -624 -625 -626 627 -628 -629 -630 -631 632 633 634 635 636 637 638 -639
v -640 641 642 643 -644 -645 -646 -647 -648 649 650 -651 -652 -653 -654 655
v 656 657 658 659 660 661 662 663 664 665 666 667 668 669 670 671 672 673 674
v 675 676 677 678 679 680 681 682 683 684 685 686 687 688 689 690 691 692 693
v 694 695 696 697 698 699 700 701 702 703 704 705 706 707 708 709 710 711 712
v 713 714 715 716 717 718 719 720 721 722 723 724 725 726 727 728 729 730 731
v 732 733 734 735 736 737 738 739 740 741 742 743 744 -745 746 747 748 749 750
v -751 752 753 -754 -755 -756 -757 758 759 760 761 762 763 764 765 766 767 768
v 769 770 771 772 773 774 775 776 777 778 779 780 781 782 783 784 785 786 787
v 788 789 790 791 792 793 794 795 796 797 798 799 800 -801 802 803 804 805 806
v 807 808 809 810 811 812 -813 -814 -815 -816 -817 818 -819 -820 -821 -822
v -823 824 -825 -826 -827 -828 -829 830 831 832 833 834 835 836 837 838 839
v 840 -841 842 843 844 845 846 -847 848 -849 -850 -851 -852 -853 854 855 856
v 857 858 859 860 861 862 863 864 865 866 867 868 869 870 871 872 873 874 875
v 876 877 878 -879 -880 881 882 883 884 885 886 887 888 889 890 891 892 893
v 894 895 896 897 898 899 900 901 902 903 904 905 906 907 908 909 910 911 -912
v -913 914 915 916 917 -918 -919 920 921 922 923 -924 -925 926 927 928 -929
v 930 931 932 933 934 935 936 -937 938 939 940 941 942 -943 944 945 -946 -947
v -948 -949 950 951 952 953 954 955 956 957 958 959 960 961 962 963 964 965
v 966 967 968 969 970 971 972 973 974 975 976 977 978 979 980 981 982 983 984
v 985 986 987 988 989 990 991 992 -993 994 995 996 997 998 999 1000 1001 1002
v 1003 1004 1005 1006 1007 -1008 -1009 1010 1011 1012 1013 -1014 -1015 1016
v 1017 1018 1019 -1020 -1021 1022 -1023 -1024 -1025 1026 1027 1028 0
c 
c --- [ run-time profiling ] -------------------------------------------------
c 
c process time taken by individual solving procedures
c (percentage relative to process time for solving)
c 
c         0.32   96.28% search
c         0.22   66.55% stable
c         0.10   29.51% unstable
c         0.01    3.45% simplify
c         0.00    1.43% elim
c         0.00    1.08% parse
c         0.00    0.98% subsume
c         0.00    0.63% vivify
c         0.00    0.18% ternary
c         0.00    0.11% lucky
c         0.00    0.04% probe
c   =================================
c         0.33   97.57% solve
c 
c last line shows process time for solving
c (percentage relative to total process time)
c 
c --- [ statistics ] ---------------------------------------------------------
c 
c blocked:                       0         0.00 %  of irredundant clauses
c   blockings:                   0         0.00    internal
c   candidates:                  0         0.00    per blocking 
c   blockres:                    0         0.00    per candidate
c   pure:                        0         0.00 %  of all variables
c   pureclauses:                 0         0.00    per pure literal
c chronological:              2496        19.17 %  of conflicts
c compacts:                      1     13023.00    interval
c conflicts:                 13023     39254.64    per second
c   backtracked:             18397       141.27 %  of conflicts
c conditioned:                   0         0.00 %  of irredundant clauses
c   conditionings:               0         0.00    interval
c   condcands:                   0         0.00    candidate clauses
c   condassinit:                 0.0       0.00 %  initial assigned
c   condcondinit:                0.0       0.00 %  initial condition
c   condautinit:                 0.0       0.00 %  initial autarky
c   condassrem:                  0.0       0.00 %  final assigned
c   condcondrem:                 0.000     0.00 %  final conditional
c   condautrem:                  0.000     0.00 %  final autarky
c   condprops:                   0         0.00    per candidate
c covered:                       0         0.00 %  of irredundant clauses
c   coverings:                   0         0.00    interval
c   asymmetric:                  0         0.00 %  of covered clauses
c   blocked:                     0         0.00 %  of covered clauses
c decisions:                 32311     97393.57    per second
c   searched:                96405         2.98    per decision
c eliminated:                  516        50.19 %  of all variables
c   elimphases:                  1     13023.00    interval
c   elimrounds:                  1         1.00    per phase
c   elimtried:                 975        52.92 %  eliminated
c   elimgates:                 624        64.00 %  gates per tried
c   elimequivs:                 68        10.90 %  equivalence gates
c   elimands:                  556        89.10 %  and gates
c   elimites:                    0         0.00 %  if-then-else gates
c   elimxors:                    0         0.00 %  xor gates
c   elimsubst:                 516       100.00 %  substituted
c   elimres:                 19519        37.83    per eliminated
c   elimrestried:            16231        83.15 %  per resolution
c ext.prop. calls:               0         0.00 %  of queries
c   propagating:                 0         0.00 %  per eprop-call
c   explained:                   0         0.00 %  per eprop-call
c   falsified:                   0         0.00 %  per eprop-call
c ext.clause calls:              0         0.00 %  of queries
c   learned:                     0         0.00 %  per called
c   conflicting:                 0         0.00 %  per learned
c   propagating:                 0         0.00 %  per learned
c ext.final check:               0         0.00 %  of queries
c fixed:                        65         6.32 %  of all variables
c   failed:                      0         0.00 %  of all variables
c   probefailed:                 0         0.00 %  per failed
c   transredunits:               0         0.00 %  per failed
c   probingphases:               1     13023.00    interval
c   probesuccess:                0         0.00 %  phases
c   probingrounds:               1         1.00    per phase
c   probed:                    163         0.00    per failed
c   hbrs:                        0         0.00    per probed
c   hbrsizes:                    0         0.00    per hbr
c   hbreds:                      0         0.00 %  per hbr
c   hbrsubs:                     0         0.00 %  per hbr
c   units:                       0         0.00    interval
c   binaries:                    4      3255.75    interval
c flushed:                       0         0.00 %  per conflict
c   hyper:                       0         0.00 %  per conflict
c   flushings:                   0         0.00    interval
c instantiated:                  0         0.00 %  of tried
c   instrounds:                  0         0.00 %  of elimrounds
c learned:                   12776        98.10 %  per conflict
c   bumped:                 305754        23.93    per learned
c   recomputed:              31635       247.61 %  per learned
c   promoted1:                 456         3.57 %  per learned
c   promoted2:                 309         2.42 %  per learned
c   improvedglue:             3347        26.20 %  per learned
c lucky:                         0         0.00 %  of tried
c   constantzero                 0         0.00 %  of tried
c   constantone                  0         0.00 %  of tried
c   backwardone                  0         0.00 %  of tried
c   backwardzero                 0         0.00 %  of tried
c   forwardone                   0         0.00 %  of tried
c   forwardzero                  0         0.00 %  of tried
c   positivehorn                 0         0.00 %  of tried
c   negativehorn                 0         0.00 %  of tried
c   extendbytes:             31392         0.03    bytes and MB
c learned_lits:             344868       100.00 %  learned literals
c minimized:                     0         0.00 %  learned literals
c shrunken:                  16993         4.93 %  learned literals
c minishrunken:              29244         8.48 %  learned literals
c otfs:                        135         1.04 %  of conflict
c   subsumed                     0         0.00 %  of conflict
c   strengthened               135         1.04 %  of conflict
c propagations:            1125453         3.39 M  per second
c   coverprops:                  0         0.00 %  of propagations
c   probeprops:                595         0.05 %  of propagations
c   searchprops:           1096221        97.40 %  of propagations
c   transredprops:           11235         1.00 %  of propagations
c   vivifyprops:             17402         1.55 %  of propagations
c   walkprops:                   0         0.00 %  of propagations
c reactivated:                   0         0.00 %  of all variables
c reduced:                    4304        33.05 %  per conflict
c   reductions:                  8      1627.88    interval
c   collections:                 9      1447.00    interval
c rephased:                      4      3255.75    interval
c   rephasedbest:                0         0.00 %  rephased best
c   rephasedflip:                1        25.00 %  rephased flipping
c   rephasedinv:                 1        25.00 %  rephased inverted
c   rephasedorig:                1        25.00 %  rephased original
c   rephasedrand:                1        25.00 %  rephased random
c   rephasedwalk:                0         0.00 %  rephased walk
c rescored:                      1     13023.00    interval
c restarts:                    566        23.01    interval
c   reused:                    149        26.33 %  per restart
c   reusedlevels:              747         4.26 %  per restart levels
c restored:                      0         0.00 %  per weakened
c   restorations:                0         0.00 %  per extension
c   literals:                    0         0.00    per restored clause
c stabilizing:                   2        61.58 %  of conflicts
c   restartstab:                 5         0.88 %  of all restarts
c   reusedstab:                  3        60.00 %  per stable restarts
c substituted:                   0         0.00 %  of all variables
c   decompositions:              2         2.00    per phase
c subsumed:                    445         1.15 %  of all clauses
c   subsumephases:               1     13023.00    interval
c   subsumerounds:               2         2.00    per phase
c   deduplicated:                0         0.00 %  per subsumed
c   transreds:                   1     13023.00    interval
c   transitive:                  0         0.00 %  per subsumed
c   subirr:                      0         0.00 %  of subsumed
c   subred:                      6         1.35 %  of subsumed
c   subtried:                 5723        12.86    tried per subsumed
c   subchecks:               89867        15.70    per tried
c   subchecks2:                 37         0.04 %  per subcheck
c   elimotfsub:                  0         0.00 %  of subsumed
c   elimbwsub:                   0         0.00 %  of subsumed
c   eagersub:                  439        98.65 %  of subsumed
c   eagertried:             281072       640.26    tried per eagersub
c strengthened:                251         0.65 %  of all clauses
c   elimotfstr:                  0         0.00 %  of strengthened
c   elimbwstr:                   0         0.00 %  of strengthened
c ternary:                       3         0.08 %  of resolved
c   phases:                      2      6511.50    interval
c   htr3:                        3       100.00 %  ternary hyper ternres
c   htr2:                        0         0.00 %  binary hyper ternres
c vivified:                      3         0.01 %  of all clauses
c   vivifications:               1     13023.00    interval
c   vivifychecks:             1879        14.43 %  per conflict
c   vivifysched:              2961        63.46 %  checks per scheduled
c   vivifyunits:                 0         0.00 %  per vivify check
c   vivifyinst:                  0         0.00 %  per vivify check
c   vivifysubs:                  2         0.45 %  per subsumed
c   vivifystrs:                  1         0.40 %  per strengthened
c   vivifystrirr:                0         0.00 %  per vivifystrs
c   vivifystred1:                0         0.00 %  per vivifystrs
c   vivifystred2:                1       100.00 %  per vivifystrs
c   vivifystred3:                0         0.00 %  per vivifystrs
c   vivifydecs:               6692         3.56    per checks
c   vivifyreused:              819        12.24 %  per decision
c walked:                        0         0.00    interval
c   flips:                       0         0.00    per walk
c   broken:                      0         0.00    per flip
c weakened:                   1480         2.30    average size
c   extensions:                  1     13023.00    interval
c   flipped:                    94         0.06    per weakened
c 
c seconds are measured in process time for solving
c 
c --- [ resources ] ----------------------------------------------------------
c 
c total process time since initialization:         0.36    seconds
c total real time since initialization:            0.57    seconds
c maximum resident set size of process:            6.44    MB
c 
c --- [ shutting down ] ------------------------------------------------------
c 
c exit 10
